% File represents an instance of a Composite Structure problem to be solved by a CP framework
% Created on 2025-03-26 10:42:06.892
T = 50;
n = 36;
m = 60;
edges = [(1, 2),
(7, 8),
(13, 14),
(19, 20),
(26, 25),
(31, 32),
(2, 3),
(8, 9),
(15, 14),
(20, 21),
(26, 27),
(32, 33),
(4, 3),
(10, 9),
(15, 16),
(21, 22),
(27, 28),
(33, 34),
(4, 5),
(10, 11),
(16, 17),
(23, 22),
(29, 28),
(35, 34),
(5, 6),
(11, 12),
(18, 17),
(24, 23),
(29, 30),
(35, 36),
(7, 1),
(7, 13),
(13, 19),
(19, 25),
(31, 25),
(8, 2),
(8, 14),
(20, 14),
(20, 26),
(26, 32),
(9, 3),
(15, 9),
(15, 21),
(27, 21),
(27, 33),
(10, 4),
(10, 16),
(16, 22),
(28, 22),
(28, 34),
(11, 5),
(11, 17),
(23, 17),
(29, 23),
(29, 35),
(12, 6),
(18, 12),
(24, 18),
(24, 30),
(30, 36)];
counts = [|10, 8, 10, 18,
|8, 8, 8, 16,
|6, 8, 6, 14,
|6, 8, 6, 16,
|6, 6, 6, 12,
|6, 4, 6, 10,
|10, 12, 10, 18,
|8, 12, 8, 16,
|8, 8, 8, 14,
|8, 10, 8, 16,
|8, 6, 8, 14,
|6, 4, 6, 14,
|8, 12, 8, 16,
|8, 10, 8, 12,
|8, 10, 8, 14,
|8, 8, 8, 12,
|8, 4, 8, 10,
|8, 4, 8, 16,
|8, 12, 8, 14,
|8, 12, 8, 12,
|8, 10, 8, 8,
|8, 6, 8, 8,
|8, 6, 8, 12,
|8, 6, 8, 18,
|8, 12, 8, 8,
|8, 12, 8, 10,
|8, 10, 8, 10,
|8, 10, 8, 8,
|8, 10, 8, 14,
|8, 6, 8, 14,
|8, 12, 8, 14,
|8, 10, 8, 10,
|8, 10, 8, 8,
|8, 10, 8, 6,
|8, 10, 8, 12,
|8, 4, 8, 12|];
